NAME : sample12
COMMENT : Sample dataset with 12 nodes
COMMENT : Derived from Zainab
TYPE : TSP
DIMENSION : 12
EDGE_WEIGHT_TYPE : EUC_2D
NODE_COORD_SECTION
1 45.678 78.345
2 90.123 23.456
3 34.789 56.234
4 67.890 89.567
5 12.345 45.678
6 98.765 32.109
7 21.456 76.890
8 54.321 32.456
9 87.234 65.789
10 23.456 54.321
11 76.890 34.567
12 56.234 90.123
EOF
